
Gurobi 6.0.4 (win64) logging started 06/18/15 16:03:13

Read LP format model from file C:\MT\repository\VRPTWMS\instances\mip\freight\N6-C_DV10-C_SV50_F14_3_No_1.lp
Reading time = 0.01 seconds
(null): 253 rows, 128 columns, 957 nonzeros
Optimize a model with 253 rows, 128 columns and 957 nonzeros
Model has 216 quadratic constraints
Coefficient statistics:
  Matrix range    [1e+00, 1e+06]
  Objective range [7e+04, 1e+07]
  Bounds range    [1e+00, 1e+06]
  RHS range       [1e+00, 1e+06]
Presolve removed 71 rows and 26 columns
Presolve time: 0.01s
Presolved: 428 rows, 225 columns, 2237 nonzeros
Variable types: 123 continuous, 102 integer (78 binary)
Found heuristic solution: objective 6.242020e+07

Root relaxation: objective 2.012288e+07, 61 iterations, 0.00 seconds

    Nodes    |    Current Node    |     Objective Bounds      |     Work
 Expl Unexpl |  Obj  Depth IntInf | Incumbent    BestBd   Gap | It/Node Time

     0     0 2.0123e+07    0   28 6.2420e+07 2.0123e+07  67.8%     -    0s
H    0     0                    4.190380e+07 2.0123e+07  52.0%     -    0s
     0     0 2.9500e+07    0   15 4.1904e+07 2.9500e+07  29.6%     -    0s
     0     0 3.1984e+07    0   19 4.1904e+07 3.1984e+07  23.7%     -    0s
     0     0 3.2016e+07    0   22 4.1904e+07 3.2016e+07  23.6%     -    0s
     0     0 3.2016e+07    0   22 4.1904e+07 3.2016e+07  23.6%     -    0s
     0     0 3.2016e+07    0   21 4.1904e+07 3.2016e+07  23.6%     -    0s
     0     0 3.2016e+07    0   28 4.1904e+07 3.2016e+07  23.6%     -    0s
     0     0 3.2016e+07    0   22 4.1904e+07 3.2016e+07  23.6%     -    0s
     0     0 3.2016e+07    0   22 4.1904e+07 3.2016e+07  23.6%     -    0s
     0     0 3.2016e+07    0   22 4.1904e+07 3.2016e+07  23.6%     -    0s
     0     0 3.2016e+07    0   22 4.1904e+07 3.2016e+07  23.6%     -    0s
     0     2 3.2016e+07    0   22 4.1904e+07 3.2016e+07  23.6%     -    0s

Cutting planes:
  Gomory: 1
  Implied bound: 4
  Clique: 12
  MIR: 3
  GUB cover: 4

Explored 27 nodes (398 simplex iterations) in 0.11 seconds
Thread count was 2 (of 4 available processors)

Optimal solution found (tolerance 1.00e-04)
Best objective 4.190380000000e+07, best bound 4.190380000000e+07, gap 0.0%
k_c1	100000.0
k_c2	60000.0
k_c3	90000.0
k_c4	100000.0
k_c5	100000.0
k_c6	30000.0
k_dN	-0.0
o_1	0.0
o_2	0.0
o_3	0.0
o_4	0.0
o_5	0.0
o_6	0.0
p_1	0.0
p_2	0.0
p_3	0.0
p_4	0.0
p_5	0.0
p_6	0.0
phi_c1	135177.0
phi_c2	12918.0
phi_c3	16183.0
phi_c4	126807.0
phi_c5	111554.0
phi_c6	118291.0
phi_d0	140000.0
phi_dN	-0.0
tauD_c1	891975.0
tauD_c2	850000.0
tauD_c3	250000.0
tauD_c4	250000.0
tauD_c5	600000.0
tauD_c6	450000.0
tauD_d0	-0.0
tauD_dN	1000000.0
tauS_c1	901975.0
tauS_c2	871725.0
tauS_c3	859525.0
tauS_c4	870700.0
tauS_c5	813700.0
tauS_c6	899850.0
tauS_d0	-0.0
tauS_dN	1000000.0
x_c1_dN	1.0
x_c2_dN	1.0
x_c3_dN	1.0
x_c4_c6	1.0
x_c5_c2	1.0
x_c6_dN	1.0
x_d0_c1	1.0
x_d0_c3	1.0
x_d0_c4	1.0
x_d0_c5	1.0
